p edge 50 587 5
v 6 5 6 13 27 37 46
v 7 1 7 10 14 28 29 47
v 6 12 21 26 30 35 44
v 16 2 3 4 8 9 15 16 19 24 36 38 40 41 43 48 50
v 15 11 17 18 20 22 23 25 31 32 33 34 39 42 45 49
e 1 5
e 1 6
e 1 7
e 1 9
e 1 10
e 1 11
e 1 12
e 1 16
e 1 17
e 1 18
e 1 19
e 1 20
e 1 21
e 1 22
e 1 23
e 1 24
e 1 25
e 1 28
e 1 29
e 1 31
e 1 32
e 1 38
e 1 39
e 1 41
e 1 43
e 1 44
e 1 45
e 1 49
e 1 50
e 2 3
e 2 4
e 2 5
e 2 6
e 2 7
e 2 9
e 2 10
e 2 11
e 2 15
e 2 16
e 2 17
e 2 18
e 2 20
e 2 23
e 2 24
e 2 25
e 2 27
e 2 29
e 2 36
e 2 37
e 2 38
e 2 39
e 2 41
e 2 42
e 2 43
e 2 44
e 2 45
e 2 49
e 3 5
e 3 9
e 3 11
e 3 12
e 3 13
e 3 17
e 3 20
e 3 22
e 3 23
e 3 24
e 3 25
e 3 28
e 3 29
e 3 35
e 3 39
e 3 43
e 3 44
e 3 45
e 3 47
e 4 11
e 4 13
e 4 15
e 4 17
e 4 20
e 4 25
e 4 26
e 4 28
e 4 29
e 4 33
e 4 34
e 4 37
e 4 38
e 4 39
e 4 40
e 4 41
e 4 43
e 4 45
e 4 49
e 4 50
e 5 8
e 5 13
e 5 16
e 5 17
e 5 20
e 5 22
e 5 25
e 5 26
e 5 27
e 5 31
e 5 32
e 5 35
e 5 36
e 5 43
e 5 44
e 5 46
e 5 49
e 6 9
e 6 10
e 6 12
e 6 15
e 6 16
e 6 19
e 6 20
e 6 23
e 6 24
e 6 32
e 6 33
e 6 34
e 6 36
e 6 38
e 6 39
e 6 40
e 6 41
e 6 42
e 6 48
e 7 10
e 7 14
e 7 18
e 7 19
e 7 21
e 7 23
e 7 24
e 7 30
e 7 34
e 7 35
e 7 36
e 7 37
e 7 38
e 7 40
e 7 41
e 7 43
e 7 45
e 7 46
e 7 48
e 7 49
e 8 11
e 8 13
e 8 14
e 8 17
e 8 19
e 8 23
e 8 29
e 8 30
e 8 31
e 8 35
e 8 36
e 8 39
e 8 40
e 8 42
e 8 46
e 8 47
e 9 10
e 9 11
e 9 14
e 9 15
e 9 17
e 9 18
e 9 19
e 9 21
e 9 25
e 9 26
e 9 27
e 9 30
e 9 31
e 9 35
e 9 39
e 9 40
e 9 44
e 9 47
e 9 48
e 9 49
e 9 50
e 10 11
e 10 12
e 10 13
e 10 14
e 10 16
e 10 18
e 10 23
e 10 24
e 10 26
e 10 27
e 10 31
e 10 32
e 10 36
e 10 37
e 10 40
e 10 43
e 10 48
e 10 50
e 11 14
e 11 15
e 11 17
e 11 18
e 11 21
e 11 24
e 11 25
e 11 27
e 11 28
e 11 29
e 11 30
e 11 31
e 11 32
e 11 34
e 11 37
e 11 38
e 11 39
e 11 40
e 11 43
e 11 45
e 11 47
e 11 48
e 11 50
e 12 13
e 12 14
e 12 16
e 12 20
e 12 21
e 12 26
e 12 27
e 12 29
e 12 30
e 12 31
e 12 35
e 12 36
e 12 37
e 12 41
e 12 45
e 12 50
e 13 15
e 13 19
e 13 24
e 13 26
e 13 28
e 13 29
e 13 32
e 13 35
e 13 37
e 13 38
e 13 43
e 13 46
e 13 47
e 13 50
e 14 15
e 14 16
e 14 17
e 14 18
e 14 20
e 14 22
e 14 23
e 14 24
e 14 25
e 14 29
e 14 31
e 14 32
e 14 33
e 14 34
e 14 36
e 14 37
e 14 40
e 14 41
e 14 43
e 14 46
e 14 47
e 14 48
e 14 50
e 15 16
e 15 17
e 15 18
e 15 25
e 15 26
e 15 28
e 15 30
e 15 31
e 15 34
e 15 38
e 15 39
e 15 40
e 15 42
e 15 45
e 15 46
e 15 50
e 16 21
e 16 23
e 16 24
e 16 27
e 16 29
e 16 30
e 16 31
e 16 32
e 16 37
e 16 39
e 16 40
e 16 42
e 16 43
e 16 44
e 16 45
e 16 46
e 16 49
e 16 50
e 17 20
e 17 22
e 17 23
e 17 27
e 17 28
e 17 34
e 17 37
e 17 40
e 17 42
e 17 44
e 17 48
e 17 50
e 18 20
e 18 21
e 18 23
e 18 24
e 18 29
e 18 30
e 18 33
e 18 34
e 18 40
e 18 41
e 18 44
e 18 46
e 18 50
e 19 21
e 19 22
e 19 23
e 19 24
e 19 25
e 19 26
e 19 29
e 19 33
e 19 37
e 19 38
e 19 39
e 19 40
e 19 41
e 19 42
e 19 43
e 19 44
e 19 45
e 19 50
e 20 21
e 20 23
e 20 25
e 20 26
e 20 28
e 20 30
e 20 32
e 20 33
e 20 34
e 20 37
e 20 39
e 20 41
e 20 42
e 20 43
e 20 45
e 20 46
e 20 47
e 20 50
e 21 23
e 21 27
e 21 29
e 21 31
e 21 32
e 21 38
e 21 40
e 21 42
e 21 44
e 21 45
e 21 47
e 22 24
e 22 25
e 22 26
e 22 28
e 22 30
e 22 33
e 22 36
e 22 42
e 22 45
e 22 46
e 22 47
e 22 49
e 22 50
e 23 29
e 23 33
e 23 37
e 23 39
e 23 41
e 23 43
e 23 44
e 23 45
e 23 46
e 23 49
e 24 25
e 24 26
e 24 28
e 24 30
e 24 31
e 24 32
e 24 34
e 24 36
e 24 40
e 24 41
e 24 43
e 24 50
e 25 26
e 25 29
e 25 31
e 25 37
e 25 38
e 25 40
e 25 42
e 25 45
e 25 48
e 25 50
e 26 27
e 26 29
e 26 30
e 26 31
e 26 35
e 26 37
e 26 38
e 26 41
e 26 43
e 26 46
e 26 47
e 26 48
e 26 50
e 27 29
e 27 30
e 27 31
e 27 32
e 27 37
e 27 39
e 27 40
e 27 42
e 27 44
e 27 47
e 27 48
e 27 50
e 28 29
e 28 34
e 28 35
e 28 36
e 28 37
e 28 38
e 28 41
e 28 43
e 28 45
e 28 47
e 28 48
e 29 32
e 29 35
e 29 39
e 29 40
e 29 41
e 29 42
e 29 44
e 29 45
e 29 46
e 29 49
e 30 31
e 30 34
e 30 44
e 30 49
e 31 34
e 31 35
e 31 37
e 31 38
e 31 39
e 31 40
e 31 41
e 31 42
e 31 43
e 31 45
e 31 46
e 31 47
e 31 48
e 31 49
e 32 37
e 32 38
e 32 39
e 32 40
e 32 41
e 32 42
e 32 44
e 32 45
e 32 46
e 32 47
e 32 49
e 32 50
e 33 36
e 33 37
e 33 40
e 33 42
e 33 44
e 33 46
e 33 47
e 33 50
e 34 35
e 34 39
e 34 40
e 34 44
e 34 48
e 35 36
e 35 37
e 35 38
e 35 39
e 35 44
e 35 47
e 35 48
e 35 49
e 36 38
e 36 39
e 36 41
e 36 42
e 36 43
e 36 46
e 36 47
e 36 48
e 36 49
e 37 38
e 37 39
e 37 40
e 37 41
e 37 42
e 37 44
e 37 47
e 37 49
e 38 43
e 38 44
e 38 47
e 38 49
e 39 41
e 39 42
e 39 45
e 39 47
e 39 50
e 40 47
e 40 48
e 40 50
e 41 42
e 41 46
e 41 48
e 41 49
e 41 50
e 42 44
e 42 45
e 42 47
e 42 48
e 42 49
e 42 50
e 43 44
e 43 45
e 43 46
e 43 47
e 43 49
e 44 46
e 44 47
e 44 48
e 44 50
e 45 47
e 45 48
e 45 49
e 46 48
e 46 49
e 47 48
e 49 50
